models/minizinc/sum_to_100.ozn
output [show(x)];
array [1..5] of int: x;
